c preprocessed version of BN_117, 40 vertices, 607 edges
p td 40 607
0 1
2 0
7 0
19 0
20 0
12 0
21 0
17 0
22 0
2 1
7 1
19 1
20 1
21 1
17 1
22 1
2 3
2 4
2 6
2 16
8 2
7 2
19 2
20 2
5 2
12 2
15 2
21 2
17 2
22 2
3 4
5 3
12 3
15 3
21 3
17 3
22 3
5 4
12 4
15 4
21 4
22 4
5 6
5 9
5 10
5 11
5 8
5 13
5 14
5 16
5 7
5 21
5 12
5 22
5 15
5 17
7 6
12 6
15 6
21 6
17 6
22 6
8 7
7 16
7 18
7 19
7 20
12 7
15 7
21 7
17 7
22 7
8 9
8 10
8 11
8 13
8 14
8 16
8 19
8 20
18 8
12 8
15 8
21 8
17 8
22 8
10 9
11 9
12 9
15 9
21 9
22 9
10 11
12 10
15 10
21 10
17 10
22 10
12 11
15 11
21 11
17 11
22 11
12 13
12 14
12 18
12 19
12 21
12 22
12 15
12 17
14 13
15 13
21 13
15 14
21 14
17 14
22 14
15 16
15 19
15 21
15 22
15 17
17 16
22 16
17 18
17 19
17 20
21 17
17 22
19 18
20 18
21 18
22 18
19 20
21 19
22 19
21 20
22 20
21 22
23 0
23 1
23 28
23 3
23 4
23 2
23 31
23 10
23 8
23 13
23 14
23 16
23 7
23 18
23 19
23 20
23 36
23 26
23 29
23 30
23 32
23 37
23 5
23 39
23 24
23 27
23 12
23 15
23 21
23 33
23 34
23 35
23 17
23 22
23 38
23 25
24 39
24 5
24 8
24 18
24 19
24 0
24 20
24 33
24 25
24 38
24 3
24 4
24 1
24 14
24 13
24 28
24 12
24 15
24 31
24 21
24 10
24 11
24 26
24 27
24 7
24 29
24 30
24 32
24 34
24 35
24 17
24 22
24 36
24 2
24 37
24 16
25 39
25 5
25 27
25 12
25 15
25 21
25 33
25 34
25 35
25 17
25 22
25 38
25 0
25 3
25 10
25 11
25 28
25 31
25 2
25 8
25 26
25 7
25 29
25 30
25 32
25 36
25 37
25 19
25 18
26 39
26 28
26 3
26 4
26 2
26 6
26 31
26 9
26 10
26 11
26 8
26 16
26 7
26 37
26 29
26 18
26 19
26 20
26 32
26 36
26 30
26 5
26 27
26 12
26 15
26 21
26 33
26 34
26 35
26 17
26 22
26 38
27 39
27 5
27 0
27 1
27 21
27 9
27 12
27 3
27 4
27 6
27 13
27 10
27 11
27 35
27 16
27 2
27 22
27 38
27 28
27 15
27 31
27 8
27 7
27 29
27 30
27 32
27 33
27 34
27 17
27 36
27 37
27 19
27 20
27 18
28 39
28 0
28 1
28 3
28 4
28 6
28 10
28 11
28 13
28 31
28 2
28 8
28 7
28 29
28 30
28 32
28 36
28 37
28 19
28 20
28 18
28 5
28 12
28 15
28 21
28 33
28 34
28 35
28 17
28 22
28 38
29 39
29 0
29 1
29 3
29 4
29 2
29 31
29 9
29 10
29 11
29 8
29 13
29 14
29 16
29 7
29 18
29 19
29 20
29 37
29 32
29 30
29 36
29 5
29 12
29 15
29 21
29 33
29 34
29 35
29 17
29 22
29 38
30 39
30 3
30 4
30 2
30 31
30 10
30 11
30 8
30 13
30 14
30 16
30 7
30 18
30 19
30 20
30 32
30 37
30 36
30 5
30 12
30 15
30 21
30 33
30 34
30 35
30 17
30 22
30 38
31 39
31 0
31 1
31 3
31 2
31 6
31 9
31 10
31 11
31 13
31 14
31 16
31 8
31 7
31 32
31 36
31 37
31 19
31 20
31 18
31 5
31 12
31 15
31 21
31 33
31 34
31 35
31 17
31 22
31 38
32 39
32 0
32 1
32 3
32 4
32 2
32 9
32 10
32 11
32 8
32 13
32 14
32 16
32 7
32 18
32 19
32 20
32 37
32 36
32 5
32 12
32 15
32 21
32 33
32 34
32 35
32 17
32 22
32 38
33 39
33 5
33 12
33 15
33 21
33 8
33 7
33 18
33 19
33 0
33 20
33 9
33 38
33 1
33 6
33 14
33 13
33 10
33 11
33 34
33 35
33 17
33 22
33 36
33 2
33 37
34 39
34 5
34 12
34 15
34 21
34 8
34 7
34 18
34 19
34 0
34 20
34 3
34 4
34 6
34 10
34 11
34 16
34 35
34 37
34 17
34 22
34 36
34 2
34 38
35 39
35 5
35 12
35 15
35 21
35 6
35 14
35 13
35 10
35 11
35 16
35 22
35 2
35 38
35 8
35 7
35 17
35 36
35 37
35 18
36 39
36 0
36 1
36 3
36 4
36 2
36 6
36 10
36 11
36 8
36 13
36 14
36 16
36 7
36 18
36 19
36 20
36 37
36 5
36 12
36 15
36 21
36 17
36 22
36 38
37 39
37 0
37 1
37 3
37 2
37 6
37 9
37 10
37 11
37 8
37 16
37 7
37 18
37 19
37 20
37 5
37 12
37 15
37 21
37 17
37 22
37 38
38 39
38 5
38 12
38 15
38 21
38 17
38 22
38 9
38 10
38 11
38 2
38 8
39 0
39 1
39 2
39 6
39 9
39 10
39 11
39 8
39 13
39 14
39 16
39 7
39 18
39 19
39 20
39 5
39 17
39 22
39 12
39 15
39 21
